\ENCODING=ISO-8859-1
\Problem name: LP/crossvalidation_paper/er_n=105_m=537_p=0.10_SET2_setparam=100.00_alpha=0.75_7

Maximize
 obj1: 100 x0 + 100 x1 + 100 x2 + 100 x3 + 100 x4 + 100 x5 + 100 x6 + 100 x7
       + 100 x8 + 100 x9 + 100 x10 + 100 x11 + 100 x12 + 100 x13 + 100 x14
       + 100 x15 + 100 x16 + 100 x17 + 100 x18 + 100 x19 + 100 x20 + 100 x21
       + 100 x22 + 100 x23 + 100 x24 + 100 x25 + 100 x26 + 100 x27 + 100 x28
       + 100 x29 + 100 x30 + 100 x31 + 100 x32 + 100 x33 + 100 x34 + 100 x35
       + 100 x36 + 100 x37 + 100 x38 + 100 x39 + 100 x40 + 100 x41 + 100 x42
       + 100 x43 + 100 x44 + 100 x45 + 100 x46 + 100 x47 + 100 x48 + 100 x49
       + 100 x50 + 100 x51 + 100 x52 + 100 x53 + 100 x54 + 100 x55 + 100 x56
       + 100 x57 + 100 x58 + 100 x59 + 100 x60 + 100 x61 + 100 x62 + 100 x63
       + 100 x64 + 100 x65 + 100 x66 + 100 x67 + 100 x68 + 100 x69 + 100 x70
       + 100 x71 + 100 x72 + 100 x73 + 100 x74 + 100 x75 + 100 x76 + 100 x77
       + 100 x78 + 100 x79 + 100 x80 + 100 x81 + 100 x82 + 100 x83 + 100 x84
       + 100 x85 + 100 x86 + 100 x87 + 100 x88 + 100 x89 + 100 x90 + 100 x91
       + 100 x92 + 100 x93 + 100 x94 + 100 x95 + 100 x96 + 100 x97 + 100 x98
       + 100 x99 + 100 x100 + 100 x101 + 100 x102 + 100 x103 + 100 x104
       - y26_47 - y50_96 - y70_103 - y81_93 - y15_74 - y48_86 - y30_51 - y50_84
       - y12_59 - y17_64 - y19_91 - y29_96 - y76_88 - y7_68 - y33_101 - y12_17
       - y1_28 - y17_90 - y14_43 - y20_58 - y51_60 - y36_101 - y3_40 - y53_62
       - y57_59 - y35_46 - y59_61 - y81_104 - y39_85 - y88_93 - y8_12 - y49_71
       - y79_85 - y25_103 - y75_93 - y3_95 - y43_52 - y15_103 - y65_71 - y47_90
       - y22_88 - y19_70 - y12_102 - y91_101 - y14_84 - y3_17 - y9_70 - y10_92
       - y36_74 - y37_68 - y93_103 - y77_100 - y14_96 - y40_48 - y8_25 - y65_88
       - y9_20 - y18_57 - y47_99 - y79_102 - y12_29 - y9_101 - y57_99 - y44_98
       - y66_104 - y4_17 - y19_27 - y32_49 - y27_43 - y39_75 - y52_81 - y31_33
       - y1_77 - y51_71 - y47_104 - y4_99 - y30_89 - y29_101 - y46_92 - y58_90
       - y46_70 - y80_89 - y23_62 - y21_26 - y31_52 - y7_70 - y41_72 - y23_99
       - y19_67 - y0_9 - y18_84 - y10_73 - y32_79 - y12_71 - y62_73 - y25_89
       - y36_77 - y48_79 - y24_75 - y7_46 - y90_93 - y36_49 - y45_52 - y54_97
       - y9_98 - y25_56 - y15_53 - y6_38 - y40_44 - y81_103 - y50_68 - y3_70
       - y12_43 - y51_64 - y41_51 - y28_70 - y20_65 - y0_7 - y19_55 - y44_92
       - y0_83 - y32_51 - y81_88 - y7_28 - y63_67 - y23_25 - y55_77 - y58_88
       - y52_60 - y35_92 - y3_39 - y36_64 - y54_62 - y22_23 - y63_72 - y24_70
       - y52_64 - y13_92 - y78_90 - y16_57 - y39_41 - y7_64 - y92_94 - y2_23
       - y41_80 - y90_100 - y15_46 - y2_49 - y1_44 - y6_11 - y0_71 - y51_87
       - y34_37 - y7_40 - y6_71 - y31_69 - y24_25 - y55_67 - y6_89 - y16_79
       - y67_93 - y28_103 - y47_76 - y68_71 - y16_101 - y35_74 - y41_99 - y3_21
       - y59_80 - y32_62 - y11_76 - y27_86 - y4_60 - y2_92 - y27_76 - y16_55
       - y3_72 - y1_98 - y68_78 - y1_4 - y16_92 - y33_71 - y68_84 - y69_98
       - y57_73 - y37_73 - y30_40 - y36_91 - y28_40 - y34_55 - y75_79 - y41_58
       - y7_69 - y33_102 - y48_58 - y68_83 - y1_55 - y23_92 - y80_93 - y2_52
       - y22_51 - y20_39 - y12_68 - y6_22 - y21_38 - y26_88 - y9_32 - y73_84
       - y51_80 - y78_88 - y74_88 - y25_96 - y12_49 - y8_17 - y17_58 - y42_66
       - y88_104 - y1_22 - y16_74 - y7_88 - y45_72 - y0_35 - y62_77 - y59_93
       - y75_103 - y6_9 - y21_47 - y47_54 - y0_89 - y5_44 - y11_47 - y35_58
       - y53_83 - y8_24 - y31_71 - y19_102 - y45_48 - y47_78 - y57_92 - y37_100
       - y33_76 - y18_101 - y32_48 - y3_61 - y2_90 - y6_60 - y53_92 - y72_86
       - y1_78 - y49_84 - y7_57 - y18_51 - y38_54 - y4_98 - y52_100 - y20_77
       - y15_62 - y30_98 - y22_79 - y96_101 - y33_54 - y78_87 - y11_51 - y55_83
       - y26_99 - y5_83 - y12_18 - y65_103 - y39_96 - y19_38 - y56_59 - y36_42
       - y52_76 - y28_80 - y75_92 - y65_70 - y22_89 - y28_100 - y45_70 - y43_90
       - y1_32 - y4_43 - y20_22 - y33_58 - y30_34 - y36_81 - y10_44 - y11_33
       - y9_49 - y53_81 - y64_87 - y39_56 - y19_78 - y18_73 - y21_76 - y37_98
       - y46_60 - y47_57 - y28_55 - y33_51 - y25_78 - y32_40 - y14_104 - y18_23
       - y27_64 - y4_70 - y11_60 - y9_28 - y64_68 - y56_97 - y58_91 - y1_50
       - y23_67 - y4_25 - y91_104 - y71_104 - y36_71 - y0_79 - y65_67 - y92_93
       - y69_77 - y16_87 - y21_94 - y14_46 - y45_75 - y70_93 - y53_59 - y75_98
       - y28_82 - y37_41 - y10_13 - y77_92 - y30_82 - y78_104 - y24_62
       - y16_100 - y10_91 - y25_33 - y47_50 - y48_71 - y14_103 - y11_35
       - y29_85 - y38_89 - y12_36 - y72_83 - y50_95 - y29_79 - y10_30 - y8_98
       - y42_83 - y66_77 - y3_27 - y4_28 - y8_61 - y5_59 - y48_84 - y17_40
       - y12_23 - y16_82 - y11_101 - y8_85 - y4_27 - y26_40 - y32_75 - y12_75
       - y13_65 - y5_36 - y6_43 - y4_79 - y54_81 - y41_60 - y29_65 - y6_77
       - y40_71 - y8_16 - y11_13 - y0_22 - y3_99 - y45_56 - y1_23 - y0_12
       - y12_100 - y59_100 - y57_84 - y87_102 - y56_63 - y3_47 - y38_104
       - y51_86 - y50_72 - y18_33 - y75_80 - y20_69 - y3_14 - y9_103 - y60_101
       - y35_77 - y0_57 - y85_91 - y9_73 - y57_71 - y38_99 - y4_23 - y34_67
       - y25_73 - y6_37 - y16_40 - y18_50 - y1_27 - y20_51 - y28_51
Subject To
 c1:   x0 + x4 <= 1
 c2:   x0 + x7 - y0_7 <= 1
 c3:   x0 + x9 - y0_9 <= 1
 c4:   x0 + x11 <= 1
 c5:   x0 + x12 - y0_12 <= 1
 c6:   x0 + x22 - y0_22 <= 1
 c7:   x0 + x34 <= 1
 c8:   x0 + x35 - y0_35 <= 1
 c9:   x0 + x57 - y0_57 <= 1
 c10:  x0 + x71 - y0_71 <= 1
 c11:  x0 + x79 - y0_79 <= 1
 c12:  x0 + x83 - y0_83 <= 1
 c13:  x0 + x89 - y0_89 <= 1
 c14:  x1 + x4 - y1_4 <= 1
 c15:  x1 + x13 <= 1
 c16:  x1 + x22 - y1_22 <= 1
 c17:  x1 + x23 - y1_23 <= 1
 c18:  x1 + x27 - y1_27 <= 1
 c19:  x1 + x28 - y1_28 <= 1
 c20:  x1 + x32 - y1_32 <= 1
 c21:  x1 + x44 - y1_44 <= 1
 c22:  x1 + x50 - y1_50 <= 1
 c23:  x1 + x55 - y1_55 <= 1
 c24:  x1 + x77 - y1_77 <= 1
 c25:  x1 + x78 - y1_78 <= 1
 c26:  x1 + x98 - y1_98 <= 1
 c27:  x2 + x23 - y2_23 <= 1
 c28:  x2 + x49 - y2_49 <= 1
 c29:  x2 + x52 - y2_52 <= 1
 c30:  x2 + x90 - y2_90 <= 1
 c31:  x2 + x92 - y2_92 <= 1
 c32:  x3 + x14 - y3_14 <= 1
 c33:  x3 + x17 - y3_17 <= 1
 c34:  x3 + x21 - y3_21 <= 1
 c35:  x3 + x27 - y3_27 <= 1
 c36:  x3 + x39 - y3_39 <= 1
 c37:  x3 + x40 - y3_40 <= 1
 c38:  x3 + x43 <= 1
 c39:  x3 + x47 - y3_47 <= 1
 c40:  x3 + x49 <= 1
 c41:  x3 + x61 - y3_61 <= 1
 c42:  x3 + x70 - y3_70 <= 1
 c43:  x3 + x72 - y3_72 <= 1
 c44:  x3 + x93 <= 1
 c45:  x3 + x95 - y3_95 <= 1
 c46:  x3 + x99 - y3_99 <= 1
 c47:  x4 + x17 - y4_17 <= 1
 c48:  x4 + x23 - y4_23 <= 1
 c49:  x4 + x25 - y4_25 <= 1
 c50:  x4 + x27 - y4_27 <= 1
 c51:  x4 + x28 - y4_28 <= 1
 c52:  x4 + x43 - y4_43 <= 1
 c53:  x4 + x60 - y4_60 <= 1
 c54:  x4 + x70 - y4_70 <= 1
 c55:  x4 + x76 <= 1
 c56:  x4 + x79 - y4_79 <= 1
 c57:  x4 + x92 <= 1
 c58:  x4 + x98 - y4_98 <= 1
 c59:  x4 + x99 - y4_99 <= 1
 c60:  x5 + x14 <= 1
 c61:  x5 + x35 <= 1
 c62:  x5 + x36 - y5_36 <= 1
 c63:  x5 + x44 - y5_44 <= 1
 c64:  x5 + x59 - y5_59 <= 1
 c65:  x5 + x77 <= 1
 c66:  x5 + x83 - y5_83 <= 1
 c67:  x6 + x9 - y6_9 <= 1
 c68:  x6 + x11 - y6_11 <= 1
 c69:  x6 + x22 - y6_22 <= 1
 c70:  x6 + x37 - y6_37 <= 1
 c71:  x6 + x38 - y6_38 <= 1
 c72:  x6 + x43 - y6_43 <= 1
 c73:  x6 + x60 - y6_60 <= 1
 c74:  x6 + x71 - y6_71 <= 1
 c75:  x6 + x77 - y6_77 <= 1
 c76:  x6 + x89 - y6_89 <= 1
 c77:  x6 + x97 <= 1
 c78:  x7 + x28 - y7_28 <= 1
 c79:  x7 + x29 <= 1
 c80:  x7 + x40 - y7_40 <= 1
 c81:  x7 + x46 - y7_46 <= 1
 c82:  x7 + x57 - y7_57 <= 1
 c83:  x7 + x64 - y7_64 <= 1
 c84:  x7 + x68 - y7_68 <= 1
 c85:  x7 + x69 - y7_69 <= 1
 c86:  x7 + x70 - y7_70 <= 1
 c87:  x7 + x83 <= 1
 c88:  x7 + x88 - y7_88 <= 1
 c89:  x8 + x12 - y8_12 <= 1
 c90:  x8 + x16 - y8_16 <= 1
 c91:  x8 + x17 - y8_17 <= 1
 c92:  x8 + x24 - y8_24 <= 1
 c93:  x8 + x25 - y8_25 <= 1
 c94:  x8 + x61 - y8_61 <= 1
 c95:  x8 + x85 - y8_85 <= 1
 c96:  x8 + x93 <= 1
 c97:  x8 + x98 - y8_98 <= 1
 c98:  x9 + x20 - y9_20 <= 1
 c99:  x9 + x28 - y9_28 <= 1
 c100: x9 + x32 - y9_32 <= 1
 c101: x9 + x49 - y9_49 <= 1
 c102: x9 + x70 - y9_70 <= 1
 c103: x9 + x73 - y9_73 <= 1
 c104: x9 + x86 <= 1
 c105: x9 + x98 - y9_98 <= 1
 c106: x9 + x101 - y9_101 <= 1
 c107: x9 + x103 - y9_103 <= 1
 c108: x10 + x13 - y10_13 <= 1
 c109: x10 + x30 - y10_30 <= 1
 c110: x10 + x44 - y10_44 <= 1
 c111: x10 + x73 - y10_73 <= 1
 c112: x10 + x81 <= 1
 c113: x10 + x82 <= 1
 c114: x10 + x91 - y10_91 <= 1
 c115: x10 + x92 - y10_92 <= 1
 c116: x11 + x13 - y11_13 <= 1
 c117: x11 + x19 <= 1
 c118: x11 + x29 <= 1
 c119: x11 + x33 - y11_33 <= 1
 c120: x11 + x35 - y11_35 <= 1
 c121: x11 + x47 - y11_47 <= 1
 c122: x11 + x51 - y11_51 <= 1
 c123: x11 + x60 - y11_60 <= 1
 c124: x11 + x76 - y11_76 <= 1
 c125: x11 + x101 - y11_101 <= 1
 c126: x11 + x104 <= 1
 c127: x12 + x17 - y12_17 <= 1
 c128: x12 + x18 - y12_18 <= 1
 c129: x12 + x23 - y12_23 <= 1
 c130: x12 + x29 - y12_29 <= 1
 c131: x12 + x36 - y12_36 <= 1
 c132: x12 + x43 - y12_43 <= 1
 c133: x12 + x44 <= 1
 c134: x12 + x49 - y12_49 <= 1
 c135: x12 + x59 - y12_59 <= 1
 c136: x12 + x68 - y12_68 <= 1
 c137: x12 + x71 - y12_71 <= 1
 c138: x12 + x75 - y12_75 <= 1
 c139: x12 + x91 <= 1
 c140: x12 + x100 - y12_100 <= 1
 c141: x12 + x102 - y12_102 <= 1
 c142: x13 + x65 - y13_65 <= 1
 c143: x13 + x92 - y13_92 <= 1
 c144: x14 + x20 <= 1
 c145: x14 + x43 - y14_43 <= 1
 c146: x14 + x46 - y14_46 <= 1
 c147: x14 + x84 - y14_84 <= 1
 c148: x14 + x96 - y14_96 <= 1
 c149: x14 + x103 - y14_103 <= 1
 c150: x14 + x104 - y14_104 <= 1
 c151: x15 + x46 - y15_46 <= 1
 c152: x15 + x53 - y15_53 <= 1
 c153: x15 + x62 - y15_62 <= 1
 c154: x15 + x65 <= 1
 c155: x15 + x74 - y15_74 <= 1
 c156: x15 + x103 - y15_103 <= 1
 c157: x16 + x19 <= 1
 c158: x16 + x21 <= 1
 c159: x16 + x40 - y16_40 <= 1
 c160: x16 + x55 - y16_55 <= 1
 c161: x16 + x57 - y16_57 <= 1
 c162: x16 + x63 <= 1
 c163: x16 + x74 - y16_74 <= 1
 c164: x16 + x75 <= 1
 c165: x16 + x79 - y16_79 <= 1
 c166: x16 + x82 - y16_82 <= 1
 c167: x16 + x87 - y16_87 <= 1
 c168: x16 + x92 - y16_92 <= 1
 c169: x16 + x100 - y16_100 <= 1
 c170: x16 + x101 - y16_101 <= 1
 c171: x16 + x104 <= 1
 c172: x17 + x23 <= 1
 c173: x17 + x40 - y17_40 <= 1
 c174: x17 + x58 - y17_58 <= 1
 c175: x17 + x64 - y17_64 <= 1
 c176: x17 + x75 <= 1
 c177: x17 + x90 - y17_90 <= 1
 c178: x18 + x23 - y18_23 <= 1
 c179: x18 + x33 - y18_33 <= 1
 c180: x18 + x34 <= 1
 c181: x18 + x47 <= 1
 c182: x18 + x50 - y18_50 <= 1
 c183: x18 + x51 - y18_51 <= 1
 c184: x18 + x57 - y18_57 <= 1
 c185: x18 + x73 - y18_73 <= 1
 c186: x18 + x79 <= 1
 c187: x18 + x84 - y18_84 <= 1
 c188: x18 + x101 - y18_101 <= 1
 c189: x18 + x104 <= 1
 c190: x19 + x27 - y19_27 <= 1
 c191: x19 + x38 - y19_38 <= 1
 c192: x19 + x55 - y19_55 <= 1
 c193: x19 + x67 - y19_67 <= 1
 c194: x19 + x70 - y19_70 <= 1
 c195: x19 + x74 <= 1
 c196: x19 + x78 - y19_78 <= 1
 c197: x19 + x91 - y19_91 <= 1
 c198: x19 + x92 <= 1
 c199: x19 + x102 - y19_102 <= 1
 c200: x20 + x22 - y20_22 <= 1
 c201: x20 + x28 <= 1
 c202: x20 + x39 - y20_39 <= 1
 c203: x20 + x51 - y20_51 <= 1
 c204: x20 + x58 - y20_58 <= 1
 c205: x20 + x65 - y20_65 <= 1
 c206: x20 + x66 <= 1
 c207: x20 + x69 - y20_69 <= 1
 c208: x20 + x77 - y20_77 <= 1
 c209: x21 + x26 - y21_26 <= 1
 c210: x21 + x35 <= 1
 c211: x21 + x38 - y21_38 <= 1
 c212: x21 + x47 - y21_47 <= 1
 c213: x21 + x76 - y21_76 <= 1
 c214: x21 + x94 - y21_94 <= 1
 c215: x22 + x23 - y22_23 <= 1
 c216: x22 + x26 <= 1
 c217: x22 + x51 - y22_51 <= 1
 c218: x22 + x79 - y22_79 <= 1
 c219: x22 + x88 - y22_88 <= 1
 c220: x22 + x89 - y22_89 <= 1
 c221: x23 + x25 - y23_25 <= 1
 c222: x23 + x62 - y23_62 <= 1
 c223: x23 + x67 - y23_67 <= 1
 c224: x23 + x91 <= 1
 c225: x23 + x92 - y23_92 <= 1
 c226: x23 + x99 - y23_99 <= 1
 c227: x24 + x25 - y24_25 <= 1
 c228: x24 + x32 <= 1
 c229: x24 + x62 - y24_62 <= 1
 c230: x24 + x70 - y24_70 <= 1
 c231: x24 + x75 - y24_75 <= 1
 c232: x25 + x33 - y25_33 <= 1
 c233: x25 + x43 <= 1
 c234: x25 + x56 - y25_56 <= 1
 c235: x25 + x72 <= 1
 c236: x25 + x73 - y25_73 <= 1
 c237: x25 + x78 - y25_78 <= 1
 c238: x25 + x89 - y25_89 <= 1
 c239: x25 + x93 <= 1
 c240: x25 + x96 - y25_96 <= 1
 c241: x25 + x103 - y25_103 <= 1
 c242: x26 + x31 <= 1
 c243: x26 + x40 - y26_40 <= 1
 c244: x26 + x47 - y26_47 <= 1
 c245: x26 + x56 <= 1
 c246: x26 + x88 - y26_88 <= 1
 c247: x26 + x98 <= 1
 c248: x26 + x99 - y26_99 <= 1
 c249: x26 + x102 <= 1
 c250: x27 + x34 <= 1
 c251: x27 + x43 - y27_43 <= 1
 c252: x27 + x64 - y27_64 <= 1
 c253: x27 + x76 - y27_76 <= 1
 c254: x27 + x81 <= 1
 c255: x27 + x82 <= 1
 c256: x27 + x86 - y27_86 <= 1
 c257: x28 + x30 <= 1
 c258: x28 + x40 - y28_40 <= 1
 c259: x28 + x51 - y28_51 <= 1
 c260: x28 + x55 - y28_55 <= 1
 c261: x28 + x70 - y28_70 <= 1
 c262: x28 + x80 - y28_80 <= 1
 c263: x28 + x82 - y28_82 <= 1
 c264: x28 + x100 - y28_100 <= 1
 c265: x28 + x103 - y28_103 <= 1
 c266: x29 + x51 <= 1
 c267: x29 + x53 <= 1
 c268: x29 + x65 - y29_65 <= 1
 c269: x29 + x79 - y29_79 <= 1
 c270: x29 + x85 - y29_85 <= 1
 c271: x29 + x96 - y29_96 <= 1
 c272: x29 + x101 - y29_101 <= 1
 c273: x30 + x34 - y30_34 <= 1
 c274: x30 + x37 <= 1
 c275: x30 + x40 - y30_40 <= 1
 c276: x30 + x51 - y30_51 <= 1
 c277: x30 + x72 <= 1
 c278: x30 + x82 - y30_82 <= 1
 c279: x30 + x89 - y30_89 <= 1
 c280: x30 + x98 - y30_98 <= 1
 c281: x31 + x33 - y31_33 <= 1
 c282: x31 + x38 <= 1
 c283: x31 + x52 - y31_52 <= 1
 c284: x31 + x69 - y31_69 <= 1
 c285: x31 + x71 - y31_71 <= 1
 c286: x31 + x78 <= 1
 c287: x31 + x82 <= 1
 c288: x31 + x86 <= 1
 c289: x31 + x90 <= 1
 c290: x32 + x40 - y32_40 <= 1
 c291: x32 + x48 - y32_48 <= 1
 c292: x32 + x49 - y32_49 <= 1
 c293: x32 + x51 - y32_51 <= 1
 c294: x32 + x62 - y32_62 <= 1
 c295: x32 + x75 - y32_75 <= 1
 c296: x32 + x79 - y32_79 <= 1
 c297: x33 + x51 - y33_51 <= 1
 c298: x33 + x54 - y33_54 <= 1
 c299: x33 + x58 - y33_58 <= 1
 c300: x33 + x61 <= 1
 c301: x33 + x67 <= 1
 c302: x33 + x71 - y33_71 <= 1
 c303: x33 + x76 - y33_76 <= 1
 c304: x33 + x101 - y33_101 <= 1
 c305: x33 + x102 - y33_102 <= 1
 c306: x34 + x37 - y34_37 <= 1
 c307: x34 + x55 - y34_55 <= 1
 c308: x34 + x67 - y34_67 <= 1
 c309: x34 + x74 <= 1
 c310: x35 + x46 - y35_46 <= 1
 c311: x35 + x58 - y35_58 <= 1
 c312: x35 + x74 - y35_74 <= 1
 c313: x35 + x77 - y35_77 <= 1
 c314: x35 + x84 <= 1
 c315: x35 + x92 - y35_92 <= 1
 c316: x36 + x42 - y36_42 <= 1
 c317: x36 + x49 - y36_49 <= 1
 c318: x36 + x64 - y36_64 <= 1
 c319: x36 + x71 - y36_71 <= 1
 c320: x36 + x74 - y36_74 <= 1
 c321: x36 + x77 - y36_77 <= 1
 c322: x36 + x81 - y36_81 <= 1
 c323: x36 + x91 - y36_91 <= 1
 c324: x36 + x101 - y36_101 <= 1
 c325: x37 + x41 - y37_41 <= 1
 c326: x37 + x52 <= 1
 c327: x37 + x68 - y37_68 <= 1
 c328: x37 + x71 <= 1
 c329: x37 + x73 - y37_73 <= 1
 c330: x37 + x89 <= 1
 c331: x37 + x98 - y37_98 <= 1
 c332: x37 + x100 - y37_100 <= 1
 c333: x38 + x49 <= 1
 c334: x38 + x54 - y38_54 <= 1
 c335: x38 + x71 <= 1
 c336: x38 + x76 <= 1
 c337: x38 + x83 <= 1
 c338: x38 + x89 - y38_89 <= 1
 c339: x38 + x97 <= 1
 c340: x38 + x99 - y38_99 <= 1
 c341: x38 + x104 - y38_104 <= 1
 c342: x39 + x41 - y39_41 <= 1
 c343: x39 + x56 - y39_56 <= 1
 c344: x39 + x75 - y39_75 <= 1
 c345: x39 + x85 - y39_85 <= 1
 c346: x39 + x90 <= 1
 c347: x39 + x96 - y39_96 <= 1
 c348: x39 + x100 <= 1
 c349: x40 + x44 - y40_44 <= 1
 c350: x40 + x48 - y40_48 <= 1
 c351: x40 + x71 - y40_71 <= 1
 c352: x41 + x51 - y41_51 <= 1
 c353: x41 + x58 - y41_58 <= 1
 c354: x41 + x60 - y41_60 <= 1
 c355: x41 + x72 - y41_72 <= 1
 c356: x41 + x80 - y41_80 <= 1
 c357: x41 + x99 - y41_99 <= 1
 c358: x42 + x52 <= 1
 c359: x42 + x66 - y42_66 <= 1
 c360: x42 + x75 <= 1
 c361: x42 + x83 - y42_83 <= 1
 c362: x43 + x52 - y43_52 <= 1
 c363: x43 + x90 - y43_90 <= 1
 c364: x43 + x97 <= 1
 c365: x44 + x65 <= 1
 c366: x44 + x92 - y44_92 <= 1
 c367: x44 + x98 - y44_98 <= 1
 c368: x44 + x104 <= 1
 c369: x45 + x48 - y45_48 <= 1
 c370: x45 + x52 - y45_52 <= 1
 c371: x45 + x56 - y45_56 <= 1
 c372: x45 + x70 - y45_70 <= 1
 c373: x45 + x72 - y45_72 <= 1
 c374: x45 + x75 - y45_75 <= 1
 c375: x45 + x89 <= 1
 c376: x46 + x58 <= 1
 c377: x46 + x60 - y46_60 <= 1
 c378: x46 + x70 - y46_70 <= 1
 c379: x46 + x92 - y46_92 <= 1
 c380: x46 + x103 <= 1
 c381: x47 + x50 - y47_50 <= 1
 c382: x47 + x54 - y47_54 <= 1
 c383: x47 + x57 - y47_57 <= 1
 c384: x47 + x76 - y47_76 <= 1
 c385: x47 + x78 - y47_78 <= 1
 c386: x47 + x90 - y47_90 <= 1
 c387: x47 + x99 - y47_99 <= 1
 c388: x47 + x100 <= 1
 c389: x47 + x103 <= 1
 c390: x47 + x104 - y47_104 <= 1
 c391: x48 + x58 - y48_58 <= 1
 c392: x48 + x71 - y48_71 <= 1
 c393: x48 + x79 - y48_79 <= 1
 c394: x48 + x80 <= 1
 c395: x48 + x84 - y48_84 <= 1
 c396: x48 + x86 - y48_86 <= 1
 c397: x48 + x98 <= 1
 c398: x49 + x55 <= 1
 c399: x49 + x56 <= 1
 c400: x49 + x71 - y49_71 <= 1
 c401: x49 + x84 - y49_84 <= 1
 c402: x49 + x96 <= 1
 c403: x50 + x68 - y50_68 <= 1
 c404: x50 + x72 - y50_72 <= 1
 c405: x50 + x84 - y50_84 <= 1
 c406: x50 + x95 - y50_95 <= 1
 c407: x50 + x96 - y50_96 <= 1
 c408: x50 + x97 <= 1
 c409: x51 + x60 - y51_60 <= 1
 c410: x51 + x64 - y51_64 <= 1
 c411: x51 + x71 - y51_71 <= 1
 c412: x51 + x80 - y51_80 <= 1
 c413: x51 + x86 - y51_86 <= 1
 c414: x51 + x87 - y51_87 <= 1
 c415: x52 + x60 - y52_60 <= 1
 c416: x52 + x64 - y52_64 <= 1
 c417: x52 + x69 <= 1
 c418: x52 + x76 - y52_76 <= 1
 c419: x52 + x81 - y52_81 <= 1
 c420: x52 + x95 <= 1
 c421: x52 + x100 - y52_100 <= 1
 c422: x53 + x59 - y53_59 <= 1
 c423: x53 + x62 - y53_62 <= 1
 c424: x53 + x81 - y53_81 <= 1
 c425: x53 + x83 - y53_83 <= 1
 c426: x53 + x92 - y53_92 <= 1
 c427: x54 + x62 - y54_62 <= 1
 c428: x54 + x66 <= 1
 c429: x54 + x81 - y54_81 <= 1
 c430: x54 + x94 <= 1
 c431: x54 + x97 - y54_97 <= 1
 c432: x55 + x67 - y55_67 <= 1
 c433: x55 + x77 - y55_77 <= 1
 c434: x55 + x83 - y55_83 <= 1
 c435: x56 + x59 - y56_59 <= 1
 c436: x56 + x63 - y56_63 <= 1
 c437: x56 + x72 <= 1
 c438: x56 + x93 <= 1
 c439: x56 + x97 - y56_97 <= 1
 c440: x56 + x98 <= 1
 c441: x56 + x101 <= 1
 c442: x57 + x59 - y57_59 <= 1
 c443: x57 + x70 <= 1
 c444: x57 + x71 - y57_71 <= 1
 c445: x57 + x73 - y57_73 <= 1
 c446: x57 + x84 - y57_84 <= 1
 c447: x57 + x92 - y57_92 <= 1
 c448: x57 + x99 - y57_99 <= 1
 c449: x58 + x66 <= 1
 c450: x58 + x88 - y58_88 <= 1
 c451: x58 + x90 - y58_90 <= 1
 c452: x58 + x91 - y58_91 <= 1
 c453: x59 + x61 - y59_61 <= 1
 c454: x59 + x80 - y59_80 <= 1
 c455: x59 + x87 <= 1
 c456: x59 + x91 <= 1
 c457: x59 + x93 - y59_93 <= 1
 c458: x59 + x95 <= 1
 c459: x59 + x100 - y59_100 <= 1
 c460: x60 + x101 - y60_101 <= 1
 c461: x61 + x102 <= 1
 c462: x62 + x73 - y62_73 <= 1
 c463: x62 + x76 <= 1
 c464: x62 + x77 - y62_77 <= 1
 c465: x63 + x67 - y63_67 <= 1
 c466: x63 + x72 - y63_72 <= 1
 c467: x64 + x68 - y64_68 <= 1
 c468: x64 + x86 <= 1
 c469: x64 + x87 - y64_87 <= 1
 c470: x65 + x67 - y65_67 <= 1
 c471: x65 + x70 - y65_70 <= 1
 c472: x65 + x71 - y65_71 <= 1
 c473: x65 + x88 - y65_88 <= 1
 c474: x65 + x103 - y65_103 <= 1
 c475: x66 + x77 - y66_77 <= 1
 c476: x66 + x104 - y66_104 <= 1
 c477: x67 + x93 - y67_93 <= 1
 c478: x67 + x95 <= 1
 c479: x67 + x99 <= 1
 c480: x68 + x71 - y68_71 <= 1
 c481: x68 + x78 - y68_78 <= 1
 c482: x68 + x83 - y68_83 <= 1
 c483: x68 + x84 - y68_84 <= 1
 c484: x68 + x86 <= 1
 c485: x69 + x74 <= 1
 c486: x69 + x77 - y69_77 <= 1
 c487: x69 + x94 <= 1
 c488: x69 + x98 - y69_98 <= 1
 c489: x70 + x93 - y70_93 <= 1
 c490: x70 + x103 - y70_103 <= 1
 c491: x71 + x81 <= 1
 c492: x71 + x104 - y71_104 <= 1
 c493: x72 + x81 <= 1
 c494: x72 + x83 - y72_83 <= 1
 c495: x72 + x86 - y72_86 <= 1
 c496: x73 + x84 - y73_84 <= 1
 c497: x74 + x88 - y74_88 <= 1
 c498: x75 + x79 - y75_79 <= 1
 c499: x75 + x80 - y75_80 <= 1
 c500: x75 + x92 - y75_92 <= 1
 c501: x75 + x93 - y75_93 <= 1
 c502: x75 + x98 - y75_98 <= 1
 c503: x75 + x103 - y75_103 <= 1
 c504: x76 + x88 - y76_88 <= 1
 c505: x77 + x92 - y77_92 <= 1
 c506: x77 + x93 <= 1
 c507: x77 + x100 - y77_100 <= 1
 c508: x78 + x87 - y78_87 <= 1
 c509: x78 + x88 - y78_88 <= 1
 c510: x78 + x90 - y78_90 <= 1
 c511: x78 + x104 - y78_104 <= 1
 c512: x79 + x85 - y79_85 <= 1
 c513: x79 + x96 <= 1
 c514: x79 + x98 <= 1
 c515: x79 + x102 - y79_102 <= 1
 c516: x80 + x89 - y80_89 <= 1
 c517: x80 + x93 - y80_93 <= 1
 c518: x81 + x88 - y81_88 <= 1
 c519: x81 + x93 - y81_93 <= 1
 c520: x81 + x103 - y81_103 <= 1
 c521: x81 + x104 - y81_104 <= 1
 c522: x82 + x92 <= 1
 c523: x82 + x93 <= 1
 c524: x85 + x91 - y85_91 <= 1
 c525: x85 + x93 <= 1
 c526: x87 + x99 <= 1
 c527: x87 + x102 - y87_102 <= 1
 c528: x88 + x93 - y88_93 <= 1
 c529: x88 + x104 - y88_104 <= 1
 c530: x90 + x93 - y90_93 <= 1
 c531: x90 + x100 - y90_100 <= 1
 c532: x91 + x101 - y91_101 <= 1
 c533: x91 + x104 - y91_104 <= 1
 c534: x92 + x93 - y92_93 <= 1
 c535: x92 + x94 - y92_94 <= 1
 c536: x93 + x103 - y93_103 <= 1
 c537: x96 + x101 - y96_101 <= 1
Bounds
 0 <= x0 <= 1
 0 <= x1 <= 1
 0 <= x2 <= 1
 0 <= x3 <= 1
 0 <= x4 <= 1
 0 <= x5 <= 1
 0 <= x6 <= 1
 0 <= x7 <= 1
 0 <= x8 <= 1
 0 <= x9 <= 1
 0 <= x10 <= 1
 0 <= x11 <= 1
 0 <= x12 <= 1
 0 <= x13 <= 1
 0 <= x14 <= 1
 0 <= x15 <= 1
 0 <= x16 <= 1
 0 <= x17 <= 1
 0 <= x18 <= 1
 0 <= x19 <= 1
 0 <= x20 <= 1
 0 <= x21 <= 1
 0 <= x22 <= 1
 0 <= x23 <= 1
 0 <= x24 <= 1
 0 <= x25 <= 1
 0 <= x26 <= 1
 0 <= x27 <= 1
 0 <= x28 <= 1
 0 <= x29 <= 1
 0 <= x30 <= 1
 0 <= x31 <= 1
 0 <= x32 <= 1
 0 <= x33 <= 1
 0 <= x34 <= 1
 0 <= x35 <= 1
 0 <= x36 <= 1
 0 <= x37 <= 1
 0 <= x38 <= 1
 0 <= x39 <= 1
 0 <= x40 <= 1
 0 <= x41 <= 1
 0 <= x42 <= 1
 0 <= x43 <= 1
 0 <= x44 <= 1
 0 <= x45 <= 1
 0 <= x46 <= 1
 0 <= x47 <= 1
 0 <= x48 <= 1
 0 <= x49 <= 1
 0 <= x50 <= 1
 0 <= x51 <= 1
 0 <= x52 <= 1
 0 <= x53 <= 1
 0 <= x54 <= 1
 0 <= x55 <= 1
 0 <= x56 <= 1
 0 <= x57 <= 1
 0 <= x58 <= 1
 0 <= x59 <= 1
 0 <= x60 <= 1
 0 <= x61 <= 1
 0 <= x62 <= 1
 0 <= x63 <= 1
 0 <= x64 <= 1
 0 <= x65 <= 1
 0 <= x66 <= 1
 0 <= x67 <= 1
 0 <= x68 <= 1
 0 <= x69 <= 1
 0 <= x70 <= 1
 0 <= x71 <= 1
 0 <= x72 <= 1
 0 <= x73 <= 1
 0 <= x74 <= 1
 0 <= x75 <= 1
 0 <= x76 <= 1
 0 <= x77 <= 1
 0 <= x78 <= 1
 0 <= x79 <= 1
 0 <= x80 <= 1
 0 <= x81 <= 1
 0 <= x82 <= 1
 0 <= x83 <= 1
 0 <= x84 <= 1
 0 <= x85 <= 1
 0 <= x86 <= 1
 0 <= x87 <= 1
 0 <= x88 <= 1
 0 <= x89 <= 1
 0 <= x90 <= 1
 0 <= x91 <= 1
 0 <= x92 <= 1
 0 <= x93 <= 1
 0 <= x94 <= 1
 0 <= x95 <= 1
 0 <= x96 <= 1
 0 <= x97 <= 1
 0 <= x98 <= 1
 0 <= x99 <= 1
 0 <= x100 <= 1
 0 <= x101 <= 1
 0 <= x102 <= 1
 0 <= x103 <= 1
 0 <= x104 <= 1
 0 <= y26_47 <= 1
 0 <= y50_96 <= 1
 0 <= y70_103 <= 1
 0 <= y81_93 <= 1
 0 <= y15_74 <= 1
 0 <= y48_86 <= 1
 0 <= y30_51 <= 1
 0 <= y50_84 <= 1
 0 <= y12_59 <= 1
 0 <= y17_64 <= 1
 0 <= y19_91 <= 1
 0 <= y29_96 <= 1
 0 <= y76_88 <= 1
 0 <= y7_68 <= 1
 0 <= y33_101 <= 1
 0 <= y12_17 <= 1
 0 <= y1_28 <= 1
 0 <= y17_90 <= 1
 0 <= y14_43 <= 1
 0 <= y20_58 <= 1
 0 <= y51_60 <= 1
 0 <= y36_101 <= 1
 0 <= y3_40 <= 1
 0 <= y53_62 <= 1
 0 <= y57_59 <= 1
 0 <= y35_46 <= 1
 0 <= y59_61 <= 1
 0 <= y81_104 <= 1
 0 <= y39_85 <= 1
 0 <= y88_93 <= 1
 0 <= y8_12 <= 1
 0 <= y49_71 <= 1
 0 <= y79_85 <= 1
 0 <= y25_103 <= 1
 0 <= y75_93 <= 1
 0 <= y3_95 <= 1
 0 <= y43_52 <= 1
 0 <= y15_103 <= 1
 0 <= y65_71 <= 1
 0 <= y47_90 <= 1
 0 <= y22_88 <= 1
 0 <= y19_70 <= 1
 0 <= y12_102 <= 1
 0 <= y91_101 <= 1
 0 <= y14_84 <= 1
 0 <= y3_17 <= 1
 0 <= y9_70 <= 1
 0 <= y10_92 <= 1
 0 <= y36_74 <= 1
 0 <= y37_68 <= 1
 0 <= y93_103 <= 1
 0 <= y77_100 <= 1
 0 <= y14_96 <= 1
 0 <= y40_48 <= 1
 0 <= y8_25 <= 1
 0 <= y65_88 <= 1
 0 <= y9_20 <= 1
 0 <= y18_57 <= 1
 0 <= y47_99 <= 1
 0 <= y79_102 <= 1
 0 <= y12_29 <= 1
 0 <= y9_101 <= 1
 0 <= y57_99 <= 1
 0 <= y44_98 <= 1
 0 <= y66_104 <= 1
 0 <= y4_17 <= 1
 0 <= y19_27 <= 1
 0 <= y32_49 <= 1
 0 <= y27_43 <= 1
 0 <= y39_75 <= 1
 0 <= y52_81 <= 1
 0 <= y31_33 <= 1
 0 <= y1_77 <= 1
 0 <= y51_71 <= 1
 0 <= y47_104 <= 1
 0 <= y4_99 <= 1
 0 <= y30_89 <= 1
 0 <= y29_101 <= 1
 0 <= y46_92 <= 1
 0 <= y58_90 <= 1
 0 <= y46_70 <= 1
 0 <= y80_89 <= 1
 0 <= y23_62 <= 1
 0 <= y21_26 <= 1
 0 <= y31_52 <= 1
 0 <= y7_70 <= 1
 0 <= y41_72 <= 1
 0 <= y23_99 <= 1
 0 <= y19_67 <= 1
 0 <= y0_9 <= 1
 0 <= y18_84 <= 1
 0 <= y10_73 <= 1
 0 <= y32_79 <= 1
 0 <= y12_71 <= 1
 0 <= y62_73 <= 1
 0 <= y25_89 <= 1
 0 <= y36_77 <= 1
 0 <= y48_79 <= 1
 0 <= y24_75 <= 1
 0 <= y7_46 <= 1
 0 <= y90_93 <= 1
 0 <= y36_49 <= 1
 0 <= y45_52 <= 1
 0 <= y54_97 <= 1
 0 <= y9_98 <= 1
 0 <= y25_56 <= 1
 0 <= y15_53 <= 1
 0 <= y6_38 <= 1
 0 <= y40_44 <= 1
 0 <= y81_103 <= 1
 0 <= y50_68 <= 1
 0 <= y3_70 <= 1
 0 <= y12_43 <= 1
 0 <= y51_64 <= 1
 0 <= y41_51 <= 1
 0 <= y28_70 <= 1
 0 <= y20_65 <= 1
 0 <= y0_7 <= 1
 0 <= y19_55 <= 1
 0 <= y44_92 <= 1
 0 <= y0_83 <= 1
 0 <= y32_51 <= 1
 0 <= y81_88 <= 1
 0 <= y7_28 <= 1
 0 <= y63_67 <= 1
 0 <= y23_25 <= 1
 0 <= y55_77 <= 1
 0 <= y58_88 <= 1
 0 <= y52_60 <= 1
 0 <= y35_92 <= 1
 0 <= y3_39 <= 1
 0 <= y36_64 <= 1
 0 <= y54_62 <= 1
 0 <= y22_23 <= 1
 0 <= y63_72 <= 1
 0 <= y24_70 <= 1
 0 <= y52_64 <= 1
 0 <= y13_92 <= 1
 0 <= y78_90 <= 1
 0 <= y16_57 <= 1
 0 <= y39_41 <= 1
 0 <= y7_64 <= 1
 0 <= y92_94 <= 1
 0 <= y2_23 <= 1
 0 <= y41_80 <= 1
 0 <= y90_100 <= 1
 0 <= y15_46 <= 1
 0 <= y2_49 <= 1
 0 <= y1_44 <= 1
 0 <= y6_11 <= 1
 0 <= y0_71 <= 1
 0 <= y51_87 <= 1
 0 <= y34_37 <= 1
 0 <= y7_40 <= 1
 0 <= y6_71 <= 1
 0 <= y31_69 <= 1
 0 <= y24_25 <= 1
 0 <= y55_67 <= 1
 0 <= y6_89 <= 1
 0 <= y16_79 <= 1
 0 <= y67_93 <= 1
 0 <= y28_103 <= 1
 0 <= y47_76 <= 1
 0 <= y68_71 <= 1
 0 <= y16_101 <= 1
 0 <= y35_74 <= 1
 0 <= y41_99 <= 1
 0 <= y3_21 <= 1
 0 <= y59_80 <= 1
 0 <= y32_62 <= 1
 0 <= y11_76 <= 1
 0 <= y27_86 <= 1
 0 <= y4_60 <= 1
 0 <= y2_92 <= 1
 0 <= y27_76 <= 1
 0 <= y16_55 <= 1
 0 <= y3_72 <= 1
 0 <= y1_98 <= 1
 0 <= y68_78 <= 1
 0 <= y1_4 <= 1
 0 <= y16_92 <= 1
 0 <= y33_71 <= 1
 0 <= y68_84 <= 1
 0 <= y69_98 <= 1
 0 <= y57_73 <= 1
 0 <= y37_73 <= 1
 0 <= y30_40 <= 1
 0 <= y36_91 <= 1
 0 <= y28_40 <= 1
 0 <= y34_55 <= 1
 0 <= y75_79 <= 1
 0 <= y41_58 <= 1
 0 <= y7_69 <= 1
 0 <= y33_102 <= 1
 0 <= y48_58 <= 1
 0 <= y68_83 <= 1
 0 <= y1_55 <= 1
 0 <= y23_92 <= 1
 0 <= y80_93 <= 1
 0 <= y2_52 <= 1
 0 <= y22_51 <= 1
 0 <= y20_39 <= 1
 0 <= y12_68 <= 1
 0 <= y6_22 <= 1
 0 <= y21_38 <= 1
 0 <= y26_88 <= 1
 0 <= y9_32 <= 1
 0 <= y73_84 <= 1
 0 <= y51_80 <= 1
 0 <= y78_88 <= 1
 0 <= y74_88 <= 1
 0 <= y25_96 <= 1
 0 <= y12_49 <= 1
 0 <= y8_17 <= 1
 0 <= y17_58 <= 1
 0 <= y42_66 <= 1
 0 <= y88_104 <= 1
 0 <= y1_22 <= 1
 0 <= y16_74 <= 1
 0 <= y7_88 <= 1
 0 <= y45_72 <= 1
 0 <= y0_35 <= 1
 0 <= y62_77 <= 1
 0 <= y59_93 <= 1
 0 <= y75_103 <= 1
 0 <= y6_9 <= 1
 0 <= y21_47 <= 1
 0 <= y47_54 <= 1
 0 <= y0_89 <= 1
 0 <= y5_44 <= 1
 0 <= y11_47 <= 1
 0 <= y35_58 <= 1
 0 <= y53_83 <= 1
 0 <= y8_24 <= 1
 0 <= y31_71 <= 1
 0 <= y19_102 <= 1
 0 <= y45_48 <= 1
 0 <= y47_78 <= 1
 0 <= y57_92 <= 1
 0 <= y37_100 <= 1
 0 <= y33_76 <= 1
 0 <= y18_101 <= 1
 0 <= y32_48 <= 1
 0 <= y3_61 <= 1
 0 <= y2_90 <= 1
 0 <= y6_60 <= 1
 0 <= y53_92 <= 1
 0 <= y72_86 <= 1
 0 <= y1_78 <= 1
 0 <= y49_84 <= 1
 0 <= y7_57 <= 1
 0 <= y18_51 <= 1
 0 <= y38_54 <= 1
 0 <= y4_98 <= 1
 0 <= y52_100 <= 1
 0 <= y20_77 <= 1
 0 <= y15_62 <= 1
 0 <= y30_98 <= 1
 0 <= y22_79 <= 1
 0 <= y96_101 <= 1
 0 <= y33_54 <= 1
 0 <= y78_87 <= 1
 0 <= y11_51 <= 1
 0 <= y55_83 <= 1
 0 <= y26_99 <= 1
 0 <= y5_83 <= 1
 0 <= y12_18 <= 1
 0 <= y65_103 <= 1
 0 <= y39_96 <= 1
 0 <= y19_38 <= 1
 0 <= y56_59 <= 1
 0 <= y36_42 <= 1
 0 <= y52_76 <= 1
 0 <= y28_80 <= 1
 0 <= y75_92 <= 1
 0 <= y65_70 <= 1
 0 <= y22_89 <= 1
 0 <= y28_100 <= 1
 0 <= y45_70 <= 1
 0 <= y43_90 <= 1
 0 <= y1_32 <= 1
 0 <= y4_43 <= 1
 0 <= y20_22 <= 1
 0 <= y33_58 <= 1
 0 <= y30_34 <= 1
 0 <= y36_81 <= 1
 0 <= y10_44 <= 1
 0 <= y11_33 <= 1
 0 <= y9_49 <= 1
 0 <= y53_81 <= 1
 0 <= y64_87 <= 1
 0 <= y39_56 <= 1
 0 <= y19_78 <= 1
 0 <= y18_73 <= 1
 0 <= y21_76 <= 1
 0 <= y37_98 <= 1
 0 <= y46_60 <= 1
 0 <= y47_57 <= 1
 0 <= y28_55 <= 1
 0 <= y33_51 <= 1
 0 <= y25_78 <= 1
 0 <= y32_40 <= 1
 0 <= y14_104 <= 1
 0 <= y18_23 <= 1
 0 <= y27_64 <= 1
 0 <= y4_70 <= 1
 0 <= y11_60 <= 1
 0 <= y9_28 <= 1
 0 <= y64_68 <= 1
 0 <= y56_97 <= 1
 0 <= y58_91 <= 1
 0 <= y1_50 <= 1
 0 <= y23_67 <= 1
 0 <= y4_25 <= 1
 0 <= y91_104 <= 1
 0 <= y71_104 <= 1
 0 <= y36_71 <= 1
 0 <= y0_79 <= 1
 0 <= y65_67 <= 1
 0 <= y92_93 <= 1
 0 <= y69_77 <= 1
 0 <= y16_87 <= 1
 0 <= y21_94 <= 1
 0 <= y14_46 <= 1
 0 <= y45_75 <= 1
 0 <= y70_93 <= 1
 0 <= y53_59 <= 1
 0 <= y75_98 <= 1
 0 <= y28_82 <= 1
 0 <= y37_41 <= 1
 0 <= y10_13 <= 1
 0 <= y77_92 <= 1
 0 <= y30_82 <= 1
 0 <= y78_104 <= 1
 0 <= y24_62 <= 1
 0 <= y16_100 <= 1
 0 <= y10_91 <= 1
 0 <= y25_33 <= 1
 0 <= y47_50 <= 1
 0 <= y48_71 <= 1
 0 <= y14_103 <= 1
 0 <= y11_35 <= 1
 0 <= y29_85 <= 1
 0 <= y38_89 <= 1
 0 <= y12_36 <= 1
 0 <= y72_83 <= 1
 0 <= y50_95 <= 1
 0 <= y29_79 <= 1
 0 <= y10_30 <= 1
 0 <= y8_98 <= 1
 0 <= y42_83 <= 1
 0 <= y66_77 <= 1
 0 <= y3_27 <= 1
 0 <= y4_28 <= 1
 0 <= y8_61 <= 1
 0 <= y5_59 <= 1
 0 <= y48_84 <= 1
 0 <= y17_40 <= 1
 0 <= y12_23 <= 1
 0 <= y16_82 <= 1
 0 <= y11_101 <= 1
 0 <= y8_85 <= 1
 0 <= y4_27 <= 1
 0 <= y26_40 <= 1
 0 <= y32_75 <= 1
 0 <= y12_75 <= 1
 0 <= y13_65 <= 1
 0 <= y5_36 <= 1
 0 <= y6_43 <= 1
 0 <= y4_79 <= 1
 0 <= y54_81 <= 1
 0 <= y41_60 <= 1
 0 <= y29_65 <= 1
 0 <= y6_77 <= 1
 0 <= y40_71 <= 1
 0 <= y8_16 <= 1
 0 <= y11_13 <= 1
 0 <= y0_22 <= 1
 0 <= y3_99 <= 1
 0 <= y45_56 <= 1
 0 <= y1_23 <= 1
 0 <= y0_12 <= 1
 0 <= y12_100 <= 1
 0 <= y59_100 <= 1
 0 <= y57_84 <= 1
 0 <= y87_102 <= 1
 0 <= y56_63 <= 1
 0 <= y3_47 <= 1
 0 <= y38_104 <= 1
 0 <= y51_86 <= 1
 0 <= y50_72 <= 1
 0 <= y18_33 <= 1
 0 <= y75_80 <= 1
 0 <= y20_69 <= 1
 0 <= y3_14 <= 1
 0 <= y9_103 <= 1
 0 <= y60_101 <= 1
 0 <= y35_77 <= 1
 0 <= y0_57 <= 1
 0 <= y85_91 <= 1
 0 <= y9_73 <= 1
 0 <= y57_71 <= 1
 0 <= y38_99 <= 1
 0 <= y4_23 <= 1
 0 <= y34_67 <= 1
 0 <= y25_73 <= 1
 0 <= y6_37 <= 1
 0 <= y16_40 <= 1
 0 <= y18_50 <= 1
 0 <= y1_27 <= 1
 0 <= y20_51 <= 1
 0 <= y28_51 <= 1
Binaries
 x0  x1  x2  x3  x4  x5  x6  x7  x8  x9  x10  x11  x12  x13  x14  x15  x16 
 x17  x18  x19  x20  x21  x22  x23  x24  x25  x26  x27  x28  x29  x30  x31 
 x32  x33  x34  x35  x36  x37  x38  x39  x40  x41  x42  x43  x44  x45  x46 
 x47  x48  x49  x50  x51  x52  x53  x54  x55  x56  x57  x58  x59  x60  x61 
 x62  x63  x64  x65  x66  x67  x68  x69  x70  x71  x72  x73  x74  x75  x76 
 x77  x78  x79  x80  x81  x82  x83  x84  x85  x86  x87  x88  x89  x90  x91 
 x92  x93  x94  x95  x96  x97  x98  x99  x100  x101  x102  x103  x104  y26_47 
 y50_96  y70_103  y81_93  y15_74  y48_86  y30_51  y50_84  y12_59  y17_64 
 y19_91  y29_96  y76_88  y7_68  y33_101  y12_17  y1_28  y17_90  y14_43  y20_58 
 y51_60  y36_101  y3_40  y53_62  y57_59  y35_46  y59_61  y81_104  y39_85 
 y88_93  y8_12  y49_71  y79_85  y25_103  y75_93  y3_95  y43_52  y15_103 
 y65_71  y47_90  y22_88  y19_70  y12_102  y91_101  y14_84  y3_17  y9_70 
 y10_92  y36_74  y37_68  y93_103  y77_100  y14_96  y40_48  y8_25  y65_88 
 y9_20  y18_57  y47_99  y79_102  y12_29  y9_101  y57_99  y44_98  y66_104 
 y4_17  y19_27  y32_49  y27_43  y39_75  y52_81  y31_33  y1_77  y51_71  y47_104 
 y4_99  y30_89  y29_101  y46_92  y58_90  y46_70  y80_89  y23_62  y21_26 
 y31_52  y7_70  y41_72  y23_99  y19_67  y0_9  y18_84  y10_73  y32_79  y12_71 
 y62_73  y25_89  y36_77  y48_79  y24_75  y7_46  y90_93  y36_49  y45_52  y54_97 
 y9_98  y25_56  y15_53  y6_38  y40_44  y81_103  y50_68  y3_70  y12_43  y51_64 
 y41_51  y28_70  y20_65  y0_7  y19_55  y44_92  y0_83  y32_51  y81_88  y7_28 
 y63_67  y23_25  y55_77  y58_88  y52_60  y35_92  y3_39  y36_64  y54_62  y22_23 
 y63_72  y24_70  y52_64  y13_92  y78_90  y16_57  y39_41  y7_64  y92_94  y2_23 
 y41_80  y90_100  y15_46  y2_49  y1_44  y6_11  y0_71  y51_87  y34_37  y7_40 
 y6_71  y31_69  y24_25  y55_67  y6_89  y16_79  y67_93  y28_103  y47_76  y68_71 
 y16_101  y35_74  y41_99  y3_21  y59_80  y32_62  y11_76  y27_86  y4_60  y2_92 
 y27_76  y16_55  y3_72  y1_98  y68_78  y1_4  y16_92  y33_71  y68_84  y69_98 
 y57_73  y37_73  y30_40  y36_91  y28_40  y34_55  y75_79  y41_58  y7_69 
 y33_102  y48_58  y68_83  y1_55  y23_92  y80_93  y2_52  y22_51  y20_39  y12_68 
 y6_22  y21_38  y26_88  y9_32  y73_84  y51_80  y78_88  y74_88  y25_96  y12_49 
 y8_17  y17_58  y42_66  y88_104  y1_22  y16_74  y7_88  y45_72  y0_35  y62_77 
 y59_93  y75_103  y6_9  y21_47  y47_54  y0_89  y5_44  y11_47  y35_58  y53_83 
 y8_24  y31_71  y19_102  y45_48  y47_78  y57_92  y37_100  y33_76  y18_101 
 y32_48  y3_61  y2_90  y6_60  y53_92  y72_86  y1_78  y49_84  y7_57  y18_51 
 y38_54  y4_98  y52_100  y20_77  y15_62  y30_98  y22_79  y96_101  y33_54 
 y78_87  y11_51  y55_83  y26_99  y5_83  y12_18  y65_103  y39_96  y19_38 
 y56_59  y36_42  y52_76  y28_80  y75_92  y65_70  y22_89  y28_100  y45_70 
 y43_90  y1_32  y4_43  y20_22  y33_58  y30_34  y36_81  y10_44  y11_33  y9_49 
 y53_81  y64_87  y39_56  y19_78  y18_73  y21_76  y37_98  y46_60  y47_57 
 y28_55  y33_51  y25_78  y32_40  y14_104  y18_23  y27_64  y4_70  y11_60  y9_28 
 y64_68  y56_97  y58_91  y1_50  y23_67  y4_25  y91_104  y71_104  y36_71  y0_79 
 y65_67  y92_93  y69_77  y16_87  y21_94  y14_46  y45_75  y70_93  y53_59 
 y75_98  y28_82  y37_41  y10_13  y77_92  y30_82  y78_104  y24_62  y16_100 
 y10_91  y25_33  y47_50  y48_71  y14_103  y11_35  y29_85  y38_89  y12_36 
 y72_83  y50_95  y29_79  y10_30  y8_98  y42_83  y66_77  y3_27  y4_28  y8_61 
 y5_59  y48_84  y17_40  y12_23  y16_82  y11_101  y8_85  y4_27  y26_40  y32_75 
 y12_75  y13_65  y5_36  y6_43  y4_79  y54_81  y41_60  y29_65  y6_77  y40_71 
 y8_16  y11_13  y0_22  y3_99  y45_56  y1_23  y0_12  y12_100  y59_100  y57_84 
 y87_102  y56_63  y3_47  y38_104  y51_86  y50_72  y18_33  y75_80  y20_69 
 y3_14  y9_103  y60_101  y35_77  y0_57  y85_91  y9_73  y57_71  y38_99  y4_23 
 y34_67  y25_73  y6_37  y16_40  y18_50  y1_27  y20_51  y28_51 
End
